5
18
0 62 48 74 18 52 78 87 15 21 93 17 23 37 35 98 82 99
16
0 91 7 41 88 30 79 55 96 3 64 65 25 69 84 77
23
0 5 89 9 83 71 20 73 58 16 14 10 31 44 90 97 22 46 28 13 70 51 32
25
0 92 57 50 86 8 6 56 19 11 42 2 45 40 47 4 29 33 54 26 85 34 61 59 76
22
0 27 66 60 24 80 68 72 67 38 95 36 49 43 81 12 75 94 1 53 39 63
